0 1
0 15
0 181
1 2
1 63
2 3
2 92
3 4
3 157
4 5
4 26
5 6
5 64
6 7
6 103
7 8
7 28
8 9
8 43
9 10
9 129
10 11
10 104
11 12
11 132
12 13
12 107
13 14
13 116
14 15
14 134
15 16
16 17
16 61
17 18
17 136
18 19
18 140
19 20
19 59
20 21
20 40
21 22
21 111
22 23
22 141
23 24
23 175
24 25
24 158
25 26
25 112
26 27
27 28
27 81
28 29
29 30
29 45
30 31
30 83
31 32
31 137
32 33
32 47
33 34
33 95
34 35
34 154
35 36
35 108
36 37
36 48
37 38
37 166
38 39
38 110
39 40
39 88
40 41
41 42
41 128
42 43
42 58
43 44
44 45
44 55
45 46
46 47
46 52
47 48
48 49
49 50
49 168
50 51
50 172
51 52
51 176
52 53
53 54
53 179
54 55
54 118
55 56
56 57
56 70
57 58
57 74
58 59
59 60
60 61
60 76
61 62
62 63
62 169
63 64
64 65
65 66
65 167
66 67
66 102
67 68
67 164
68 69
68 99
69 70
69 119
70 71
71 72
71 163
72 73
72 159
73 74
73 155
74 75
75 76
75 152
76 77
77 78
77 170
78 79
78 150
79 80
79 122
80 81
80 113
81 82
82 83
82 149
83 84
84 85
84 135
85 86
85 162
86 87
86 148
87 88
87 165
88 89
89 90
89 127
90 91
90 147
91 92
91 180
92 93
93 94
93 126
94 95
94 156
95 96
96 97
96 138
97 98
97 125
98 99
98 121
99 100
100 101
100 139
101 102
101 143
102 103
103 104
104 105
105 106
105 144
106 107
106 153
107 108
108 109
109 110
109 115
110 111
111 112
112 113
113 114
114 115
114 120
115 116
116 117
117 118
117 181
118 119
119 120
120 121
121 122
122 123
123 124
123 171
124 125
124 130
125 126
126 127
127 128
128 129
129 130
130 131
131 132
131 173
132 133
133 134
133 161
134 135
135 136
136 137
137 138
138 139
139 140
140 141
141 142
142 143
142 177
143 144
144 145
145 146
145 151
146 147
146 178
147 148
148 149
149 150
150 151
151 152
152 153
153 154
154 155
155 156
156 157
157 158
158 159
159 160
160 161
160 174
161 162
162 163
163 164
164 165
165 166
166 167
167 168
168 169
169 170
170 171
171 172
172 173
173 174
174 175
175 176
176 177
177 178
178 179
179 180
180 181
